; Options: -q --produce-models --incremental --print-success --lang smt2.6 --arrays-exp
(set-logic ALL)

(declare-fun start!1151 () Bool)

(assert start!1151)

(declare-fun res!4354 () Bool)

(declare-fun e!2795 () Bool)

(assert (=> start!1151 (=> (not res!4354) (not e!2795))))

(declare-fun jz!67 () (_ BitVec 32))

(declare-datatypes ((array!425 0))(
  ( (array!426 (arr!187 (Array (_ BitVec 32) (_ FloatingPoint 11 53))) (size!187 (_ BitVec 32))) )
))
(declare-fun qq!69 () array!425)

(assert (=> start!1151 (= res!4354 (and (bvsle #b00000000000000000000000000000000 jz!67) (bvslt jz!67 #b00000000000000000000000000010100) (= (size!187 qq!69) #b00000000000000000000000000010100)))))

(assert (=> start!1151 e!2795))

(assert (=> start!1151 true))

(declare-fun array_inv!137 (array!425) Bool)

(assert (=> start!1151 (array_inv!137 qq!69)))

(declare-fun b!5493 () Bool)

(declare-fun res!4355 () Bool)

(assert (=> b!5493 (=> (not res!4355) (not e!2795))))

(declare-fun qqInv!0 (array!425) Bool)

(assert (=> b!5493 (= res!4355 (qqInv!0 qq!69))))

(declare-fun b!5494 () Bool)

(assert (=> b!5494 (= e!2795 false)))

(assert (= (and start!1151 res!4354) b!5493))

(assert (= (and b!5493 res!4355) b!5494))

(declare-fun m!9115 () Bool)

(assert (=> start!1151 m!9115))

(declare-fun m!9117 () Bool)

(assert (=> b!5493 m!9117))

(declare-fun m!9119 () Bool)

(assert (=> b!5494 m!9119))

(declare-fun m!9121 () Bool)

(assert (=> b!5494 m!9121))

(declare-fun m!9123 () Bool)

(assert (=> b!5494 m!9123))

(declare-fun m!9125 () Bool)

(assert (=> b!5494 m!9125))

(declare-fun m!9127 () Bool)

(assert (=> b!5494 m!9127))

(declare-fun m!9129 () Bool)

(assert (=> b!5494 m!9129))

(declare-fun m!9131 () Bool)

(assert (=> b!5494 m!9131))

(declare-fun m!9133 () Bool)

(assert (=> b!5494 m!9133))

(declare-fun m!9135 () Bool)

(assert (=> b!5494 m!9135))

(push 1)

(assert (not b!5493))

(assert (not start!1151))

(check-sat)

(pop 1)

(push 1)

(check-sat)

(pop 1)

